Minimize
  - 55 y_0 - 54 y_1 - 45 y_2 - 21 y_3 - 36 y_4 - 41 y_5 - 39 y_6 - 46 y_7
   - 3 y_8 - 42 y_9 - 27 y_10 - 47 y_11 - 34 y_12 - 40 y_14 - 43 y_15
   - 43 y_16 - 56 y_17 - 15 y_18 - 33 y_19 - 62 y_20 - 58 y_21 - 34 y_22
   - 28 y_23 - 47 y_24 - 52 y_25 - 35 y_26 - 64 y_27 - 58 y_28 - 45 y_29
   - 29 y_30 - 40 y_31 - 47 y_32 - 50 y_33 - 27 y_34 - 58 y_35 - 49 y_36
   - 63 y_37 - 42 y_38 - 47 y_39 - 44 y_40 - 33 y_41 - 46 y_42 - 39 y_43
   - 41 y_44 - 34 y_45 - 42 y_46 - 7 y_47 - 19 y_48 - 21 y_49 - 45 y_50
   - 37 y_51 - 62 y_52 - 27 y_53 - 30 y_54 - 16 y_55 - 49 y_56 - 55 y_57
   - 54 y_58 - 13 y_59 - 4 y_60 - 42 y_61 - 20 y_62 - 46 y_63 - 57 y_64
   - 53 y_65 - 22 y_66 - 27 y_67 - 39 y_68 - 53 y_69 - 41 y_70 - 22 y_71
   - 43 y_72 - 20 y_73 - 44 y_74 - 15 y_75 - 14 y_76 - 49 y_77 - 20 y_78
   - 51 y_79 - 26 y_80 - 37 y_81 - 27 y_82 - 43 y_83 - 16 y_84 - 47 y_85
   - 17 y_86 - 41 y_87 - 53 y_88 - 32 y_89 - 48 y_90 - 33 y_91 - 11 y_92
   - 37 y_93 - 21 y_94 - 22 y_95 - 58 y_96 - 53 y_97 - 22 y_98 - 43 y_99
   + 3738 Constant
Subject To
 c_0: y_83 = 1
 c_1_0: y_0 + y_2 + y_14 + y_16 + y_20 + y_25 + y_33 + y_36 + y_37 + y_39
   + y_56 + y_57 + y_97 >= 1
 c_1_1: y_1 + y_9 + y_11 + y_40 + y_52 + y_58 >= 1
 c_1_2: y_0 + y_2 + y_6 + y_14 + y_25 + y_36 + y_37 + y_39 + y_56 + y_65
   + y_68 + y_72 + y_82 + y_85 + y_89 + y_90 + y_97 >= 1
 c_1_3: y_3 + y_8 + y_10 + y_18 + y_30 + y_34 + y_47 + y_55 + y_59 + y_66
   + y_71 + y_75 + y_76 + y_80 + y_82 + y_89 + y_92 + y_94 + y_98 >= 1
 c_1_4: y_4 + y_5 + y_12 + y_19 + y_41 + y_45 + y_51 + y_69 + y_70 + y_73
   + y_86 + y_87 + y_93 + y_95 + y_99 >= 1
 c_1_5: y_4 + y_5 + y_12 + y_21 + y_22 + y_29 + y_31 + y_32 + y_38 + y_41
   + y_51 + y_54 + y_69 + y_70 + y_74 + y_99 >= 1
 c_1_6: y_2 + y_6 + y_14 + y_25 + y_39 + y_65 + y_66 + y_68 + y_72 + y_82
   + y_85 + y_89 + y_90 + y_94 + y_97 >= 1
 c_1_7: y_7 + y_16 + y_30 + y_33 + y_34 + y_56 + y_57 + y_63 + y_88 >= 1
 c_1_8: y_3 + y_8 + y_13 + y_18 + y_47 + y_48 + y_55 + y_59 + y_60 + y_62
   + y_75 + y_76 + y_78 + y_84 + y_86 + y_92 + y_94 + y_98 >= 1
 c_1_9: y_1 + y_9 + y_11 + y_23 + y_24 + y_26 + y_40 + y_58 + y_79 >= 1
 c_1_10: y_3 + y_10 + y_18 + y_30 + y_34 + y_43 + y_49 + y_71 + y_76 + y_80
   + y_92 >= 1
 c_1_11: y_1 + y_9 + y_11 + y_40 + y_52 + y_53 + y_58 >= 1
 c_1_12: y_4 + y_5 + y_12 + y_19 + y_29 + y_41 + y_45 + y_51 + y_54 + y_69
   + y_70 + y_73 + y_86 + y_93 + y_95 + y_99 >= 1
 c_1_13: y_8 + y_13 + y_18 + y_47 + y_48 + y_55 + y_59 + y_60 + y_62 + y_73
   + y_75 + y_76 + y_78 + y_84 + y_86 + y_92 >= 1
 c_1_14: y_0 + y_2 + y_6 + y_14 + y_16 + y_25 + y_33 + y_36 + y_39 + y_56
   + y_65 + y_66 + y_72 + y_82 + y_85 + y_89 + y_97 >= 1
 c_1_15: y_15 + y_22 + y_31 + y_46 + y_67 + y_77 + y_81 >= 1
 c_1_16: y_0 + y_7 + y_14 + y_16 + y_25 + y_30 + y_33 + y_34 + y_36 + y_39
   + y_56 + y_57 + y_63 + y_89 >= 1
 c_1_17: y_17 + y_28 + y_35 + y_43 + y_46 + y_64 >= 1
 c_1_18: y_3 + y_8 + y_10 + y_13 + y_18 + y_30 + y_34 + y_47 + y_49 + y_60
   + y_67 + y_71 + y_76 + y_80 + y_92 >= 1
 c_1_19: y_4 + y_12 + y_19 + y_41 + y_45 + y_51 + y_70 + y_73 + y_86 + y_87
   + y_91 + y_93 + y_95 + y_99 >= 1
 c_1_20: y_0 + y_20 + y_25 + y_33 + y_36 + y_37 + y_39 + y_56 + y_57 + y_97
   >= 1
 c_1_21: y_5 + y_21 + y_27 + y_29 + y_32 + y_38 + y_69 + y_96 + y_99 >= 1
 c_1_22: y_5 + y_15 + y_22 + y_31 + y_38 + y_46 + y_54 + y_67 + y_74 + y_77
   + y_81 >= 1
 c_1_23: y_9 + y_23 + y_26 + y_40 + y_48 + y_53 + y_62 + y_78 + y_84 >= 1
 c_1_24: y_9 + y_24 + y_26 + y_58 + y_79 + y_83 >= 1
 c_1_25: y_0 + y_2 + y_6 + y_14 + y_16 + y_20 + y_25 + y_33 + y_36 + y_37
   + y_39 + y_56 + y_72 + y_89 + y_97 >= 1
 c_1_26: y_9 + y_23 + y_24 + y_26 + y_48 + y_79 + y_83 + y_91 >= 1
 c_1_27: y_21 + y_27 + y_69 + y_96 >= 1
 c_1_28: y_17 + y_28 + y_35 + y_46 + y_64 >= 1
 c_1_29: y_5 + y_12 + y_21 + y_29 + y_31 + y_32 + y_38 + y_41 + y_51 + y_54
   + y_69 + y_70 + y_74 + y_99 >= 1
 c_1_30: y_3 + y_7 + y_10 + y_16 + y_18 + y_30 + y_34 + y_43 + y_49 + y_63
   + y_66 + y_71 + y_76 + y_80 + y_92 >= 1
 c_1_31: y_5 + y_15 + y_22 + y_29 + y_31 + y_32 + y_38 + y_54 + y_67 + y_74
   + y_77 + y_81 >= 1
 c_1_32: y_5 + y_21 + y_29 + y_31 + y_32 + y_38 + y_41 + y_51 + y_54 + y_69
   + y_70 + y_74 + y_99 >= 1
 c_1_33: y_0 + y_7 + y_14 + y_16 + y_20 + y_25 + y_33 + y_36 + y_39 + y_56
   + y_57 + y_63 + y_97 >= 1
 c_1_34: y_3 + y_7 + y_10 + y_16 + y_18 + y_30 + y_34 + y_49 + y_63 + y_66
   + y_71 + y_76 + y_80 + y_92 >= 1
 c_1_35: y_17 + y_28 + y_35 + y_43 + y_64 + y_88 >= 1
 c_1_36: y_0 + y_2 + y_14 + y_16 + y_20 + y_25 + y_33 + y_36 + y_39 + y_56
   + y_57 + y_63 + y_97 >= 1
 c_1_37: y_0 + y_2 + y_20 + y_25 + y_37 + y_39 + y_65 + y_97 >= 1
 c_1_38: y_5 + y_21 + y_22 + y_29 + y_31 + y_32 + y_38 + y_41 + y_54 + y_74
   >= 1
 c_1_39: y_0 + y_2 + y_6 + y_14 + y_16 + y_20 + y_25 + y_33 + y_36 + y_37
   + y_39 + y_56 + y_72 + y_89 + y_97 >= 1
 c_1_40: y_1 + y_9 + y_11 + y_23 + y_40 + y_52 + y_53 + y_58 >= 1
 c_1_41: y_4 + y_5 + y_12 + y_19 + y_29 + y_32 + y_38 + y_41 + y_45 + y_51
   + y_54 + y_69 + y_70 + y_73 + y_86 + y_95 + y_99 >= 1
 c_1_42: y_42 + y_44 + y_50 + y_61 + y_68 + y_85 + y_90 >= 1
 c_1_43: y_10 + y_17 + y_30 + y_35 + y_43 + y_46 + y_49 + y_64 + y_80
   + y_88 >= 1
 c_1_44: y_42 + y_44 + y_50 + y_61 + y_65 + y_68 + y_72 + y_85 + y_90
   + y_98 >= 1
 c_1_45: y_4 + y_12 + y_19 + y_41 + y_45 + y_48 + y_51 + y_70 + y_73 + y_86
   + y_87 + y_91 + y_93 + y_95 + y_99 >= 1
 c_1_46: y_15 + y_17 + y_22 + y_28 + y_43 + y_46 + y_67 + y_77 + y_81 >= 1
 c_1_47: y_3 + y_8 + y_13 + y_18 + y_47 + y_55 + y_59 + y_60 + y_62 + y_66
   + y_71 + y_75 + y_76 + y_78 + y_82 + y_84 + y_92 + y_94 + y_98 >= 1
 c_1_48: y_8 + y_13 + y_23 + y_26 + y_45 + y_48 + y_60 + y_73 + y_78 + y_84
   + y_86 + y_91 + y_95 >= 1
 c_1_49: y_10 + y_18 + y_30 + y_34 + y_43 + y_49 + y_67 + y_71 + y_76
   + y_80 + y_92 >= 1
 c_1_50: y_42 + y_44 + y_50 + y_61 + y_65 + y_68 + y_72 + y_85 + y_90 >= 1
 c_1_51: y_4 + y_5 + y_12 + y_19 + y_29 + y_32 + y_41 + y_45 + y_51 + y_54
   + y_69 + y_70 + y_73 + y_93 + y_95 + y_99 >= 1
 c_1_52: y_1 + y_11 + y_40 + y_52 + y_58 >= 1
 c_1_53: y_11 + y_23 + y_40 + y_53 + y_55 + y_59 + y_62 + y_78 + y_84
   + y_98 >= 1
 c_1_54: y_5 + y_12 + y_22 + y_29 + y_31 + y_32 + y_38 + y_41 + y_51 + y_54
   + y_67 + y_73 + y_74 + y_95 >= 1
 c_1_55: y_3 + y_8 + y_13 + y_47 + y_53 + y_55 + y_59 + y_60 + y_62 + y_66
   + y_75 + y_76 + y_78 + y_82 + y_84 + y_92 + y_94 + y_98 >= 1
 c_1_56: y_0 + y_2 + y_7 + y_14 + y_16 + y_20 + y_25 + y_33 + y_36 + y_39
   + y_56 + y_57 + y_63 + y_97 >= 1
 c_1_57: y_0 + y_7 + y_16 + y_20 + y_33 + y_36 + y_56 + y_57 + y_63 >= 1
 c_1_58: y_1 + y_9 + y_11 + y_24 + y_40 + y_52 + y_58 + y_79 >= 1
 c_1_59: y_3 + y_8 + y_13 + y_47 + y_53 + y_55 + y_59 + y_60 + y_62 + y_66
   + y_71 + y_75 + y_76 + y_78 + y_82 + y_84 + y_92 + y_94 + y_98 >= 1
 c_1_60: y_8 + y_13 + y_18 + y_47 + y_48 + y_55 + y_59 + y_60 + y_73 + y_75
   + y_76 + y_84 + y_86 + y_92 + y_95 >= 1
 c_1_61: y_42 + y_44 + y_50 + y_61 + y_68 + y_85 + y_90 + y_98 >= 1
 c_1_62: y_8 + y_13 + y_23 + y_47 + y_53 + y_55 + y_59 + y_62 + y_66 + y_75
   + y_78 + y_82 + y_84 + y_94 + y_98 >= 1
 c_1_63: y_7 + y_16 + y_30 + y_33 + y_34 + y_36 + y_56 + y_57 + y_63 + y_88
   >= 1
 c_1_64: y_17 + y_28 + y_35 + y_43 + y_64 + y_88 >= 1
 c_1_65: y_2 + y_6 + y_14 + y_37 + y_44 + y_50 + y_65 + y_68 + y_72 + y_85
   + y_90 + y_97 >= 1
 c_1_66: y_3 + y_6 + y_14 + y_30 + y_34 + y_47 + y_55 + y_59 + y_62 + y_66
   + y_71 + y_75 + y_76 + y_80 + y_82 + y_89 + y_92 + y_94 + y_98 >= 1
 c_1_67: y_15 + y_18 + y_22 + y_31 + y_46 + y_49 + y_54 + y_67 + y_81 >= 1
 c_1_68: y_2 + y_6 + y_42 + y_44 + y_50 + y_61 + y_65 + y_68 + y_72 + y_82
   + y_85 + y_89 + y_90 + y_94 + y_98 >= 1
 c_1_69: y_4 + y_5 + y_12 + y_21 + y_27 + y_29 + y_32 + y_41 + y_51 + y_69
   + y_70 + y_96 + y_99 >= 1
 c_1_70: y_4 + y_5 + y_12 + y_19 + y_29 + y_32 + y_41 + y_45 + y_51 + y_69
   + y_70 + y_93 + y_96 + y_99 >= 1
 c_1_71: y_3 + y_10 + y_18 + y_30 + y_34 + y_47 + y_49 + y_59 + y_66 + y_71
   + y_75 + y_76 + y_80 + y_82 + y_89 + y_92 + y_94 >= 1
 c_1_72: y_2 + y_6 + y_14 + y_25 + y_39 + y_44 + y_50 + y_65 + y_68 + y_72
   + y_82 + y_85 + y_89 + y_90 + y_97 >= 1
 c_1_73: y_4 + y_12 + y_13 + y_19 + y_41 + y_45 + y_48 + y_51 + y_54 + y_60
   + y_73 + y_86 + y_91 + y_93 + y_95 >= 1
 c_1_74: y_5 + y_22 + y_29 + y_31 + y_32 + y_38 + y_54 + y_74 + y_77 + y_81
   >= 1
 c_1_75: y_3 + y_8 + y_13 + y_47 + y_55 + y_59 + y_60 + y_62 + y_66 + y_71
   + y_75 + y_76 + y_78 + y_82 + y_84 + y_89 + y_92 + y_94 + y_98 >= 1
 c_1_76: y_3 + y_8 + y_10 + y_13 + y_18 + y_30 + y_34 + y_47 + y_49 + y_55
   + y_59 + y_60 + y_66 + y_71 + y_75 + y_76 + y_80 + y_92 >= 1
 c_1_77: y_15 + y_22 + y_31 + y_46 + y_74 + y_77 + y_81 >= 1
 c_1_78: y_8 + y_13 + y_23 + y_47 + y_48 + y_53 + y_55 + y_59 + y_62 + y_75
   + y_78 + y_84 + y_98 >= 1
 c_1_79: y_9 + y_24 + y_26 + y_58 + y_79 + y_83 >= 1
 c_1_80: y_3 + y_10 + y_18 + y_30 + y_34 + y_43 + y_49 + y_66 + y_71 + y_76
   + y_80 + y_92 >= 1
 c_1_81: y_15 + y_22 + y_31 + y_46 + y_67 + y_74 + y_77 + y_81 >= 1
 c_1_82: y_2 + y_3 + y_6 + y_14 + y_47 + y_55 + y_59 + y_62 + y_66 + y_68
   + y_71 + y_72 + y_75 + y_82 + y_89 + y_94 + y_98 >= 1
 c_1_83: y_24 + y_26 + y_79 + y_83 + y_87 + y_91 + y_93 >= 1
 c_1_84: y_8 + y_13 + y_23 + y_47 + y_48 + y_53 + y_55 + y_59 + y_60 + y_62
   + y_75 + y_78 + y_84 + y_86 + y_98 >= 1
 c_1_85: y_2 + y_6 + y_14 + y_42 + y_44 + y_50 + y_61 + y_65 + y_68 + y_72
   + y_85 + y_90 >= 1
 c_1_86: y_4 + y_8 + y_12 + y_13 + y_19 + y_41 + y_45 + y_48 + y_60 + y_73
   + y_84 + y_86 + y_91 + y_93 + y_95 >= 1
 c_1_87: y_4 + y_19 + y_45 + y_83 + y_87 + y_91 + y_93 >= 1
 c_1_88: y_7 + y_35 + y_43 + y_63 + y_64 + y_88 >= 1
 c_1_89: y_2 + y_3 + y_6 + y_14 + y_16 + y_25 + y_39 + y_66 + y_68 + y_71
   + y_72 + y_75 + y_82 + y_89 + y_94 + y_98 >= 1
 c_1_90: y_2 + y_6 + y_42 + y_44 + y_50 + y_61 + y_65 + y_68 + y_72 + y_85
   + y_90 >= 1
 c_1_91: y_19 + y_26 + y_45 + y_48 + y_73 + y_83 + y_86 + y_87 + y_91
   + y_93 + y_95 >= 1
 c_1_92: y_3 + y_8 + y_10 + y_13 + y_18 + y_30 + y_34 + y_47 + y_49 + y_55
   + y_59 + y_60 + y_66 + y_71 + y_75 + y_76 + y_80 + y_92 >= 1
 c_1_93: y_4 + y_12 + y_19 + y_45 + y_51 + y_70 + y_73 + y_83 + y_86 + y_87
   + y_91 + y_93 + y_95 >= 1
 c_1_94: y_3 + y_6 + y_8 + y_47 + y_55 + y_59 + y_62 + y_66 + y_68 + y_71
   + y_75 + y_82 + y_89 + y_94 + y_98 >= 1
 c_1_95: y_4 + y_12 + y_19 + y_41 + y_45 + y_48 + y_51 + y_54 + y_60 + y_73
   + y_86 + y_91 + y_93 + y_95 >= 1
 c_1_96: y_21 + y_27 + y_69 + y_70 + y_96 + y_99 >= 1
 c_1_97: y_0 + y_2 + y_6 + y_14 + y_20 + y_25 + y_33 + y_36 + y_37 + y_39
   + y_56 + y_65 + y_72 + y_97 >= 1
 c_1_98: y_3 + y_8 + y_44 + y_47 + y_53 + y_55 + y_59 + y_61 + y_62 + y_66
   + y_68 + y_75 + y_78 + y_82 + y_84 + y_89 + y_94 + y_98 >= 1
 c_1_99: y_4 + y_5 + y_12 + y_19 + y_21 + y_29 + y_32 + y_41 + y_45 + y_51
   + y_69 + y_70 + y_96 + y_99 >= 1
Bounds
 Constant = 1
Binaries
 y_0 y_1 y_2 y_3 y_4 y_5 y_6 y_7 y_8 y_9 y_10 y_11 y_12 y_13 y_14 y_15 y_16
 y_17 y_18 y_19 y_20 y_21 y_22 y_23 y_24 y_25 y_26 y_27 y_28 y_29 y_30 y_31
 y_32 y_33 y_34 y_35 y_36 y_37 y_38 y_39 y_40 y_41 y_42 y_43 y_44 y_45 y_46
 y_47 y_48 y_49 y_50 y_51 y_52 y_53 y_54 y_55 y_56 y_57 y_58 y_59 y_60 y_61
 y_62 y_63 y_64 y_65 y_66 y_67 y_68 y_69 y_70 y_71 y_72 y_73 y_74 y_75 y_76
 y_77 y_78 y_79 y_80 y_81 y_82 y_83 y_84 y_85 y_86 y_87 y_88 y_89 y_90 y_91
 y_92 y_93 y_94 y_95 y_96 y_97 y_98 y_99
End
